/*********************************************
 * OPL 22.1.1.0 Data
 * Author: duongphuonggiang
 * Creation Date: Mar 7, 2024 at 4:51:47 PM
 *********************************************/

Nbitems=5;
capacity=26;

weights=[12,7,11,8,9];
profits=[24,13,23,15,16];
